\ Model Routes
\ LP format - for model browsing. Use MPS format to capture full model detail.
Maximize
  - 191.7153353028244 R{0,0} + 623.2046552982704 R{0,1}
   + 623.2046552982704 R{0,2} - 249.2301939667805 R{0,3}
   + 234.7650315204939 R{0,4} + 397.2891588355392 R{0,5}
   + 568.2280287393723 R{0,6} + 526.7668860260823 R{0,7}
   + 330.3075410177762 R{0,8} + 817.2322365042505 R{0,9}
   + 1227.823242124595 R{0,10} + 1724.124962564502 R{0,11}
   + 502.2742369343669 R{0,12} + 563.3434037643958 R{0,13}
   + 261.7423894628656 R{0,14} + 758.412977274179 R{0,15}
   + 433.200913348322 R{0,16} + 1003.707194392363 R{0,17}
   - 256.140831891889 R{1,0} - 58.16416216887956 R{1,1}
   + 669.0062570112706 R{1,2} + 1015.602747664576 R{1,3}
   + 907.5980735433909 R{1,4} + 748.3040344626135 R{1,5}
   + 1259.421835629828 R{1,6} + 588.0071046780096 R{1,7}
   + 432.3027173560719 R{1,8} + 941.2561960918879 R{1,9}
   + 466.5314942212706 R{1,10} + 968.6199004181744 R{1,11}
   + 559.1271477403136 R{1,12} + 780.9592663072841 R{1,13}
   + 780.9592663072841 R{1,14} + 780.9592663072841 R{1,15}
   + 1198.881248318718 R{2,0} + 1198.881248318718 R{2,1}
   - 278.4443928850388 R{2,2} - 231.9191033703545 R{2,3}
   + 429.989866465845 R{2,4} + 927.7209177062732 R{2,5}
   + 473.9263938819845 R{2,6} + 838.9337808786102 R{2,7}
   + 612.6274307492583 R{2,8} - 15.3187092745718 R{2,9}
   + 202.0150801154183 R{2,10} + 1275.463264420176 R{2,11}
   + 591.0325885092791 R{2,12} + 58.94405428171092 R{2,13}
   + 457.1788570536305 R{2,14} + 392.225728173772 R{2,15}
   - 260.2482995389823 R{3,0} + 967.7221973521264 R{3,1}
   + 1335.663160618656 R{3,2} + 1696.665877888776 R{3,3}
   + 1013.070360991709 R{3,4} + 1094.177822420598 R{3,5}
   + 955.0145210349631 R{3,6} + 1213.827406823986 R{3,7}
   + 1473.65894586856 R{3,8} + 1230.559731849624 R{3,9}
   + 1948.301308646546 R{3,10} + 340.9276109181085 R{3,11}
   + 1610.1863605111 R{3,12} + 503.2948716882186 R{3,13}
   + 1328.304089554801 R{3,14} + 1064.902232431956 R{3,15}
   + 622.3210960664773 R{3,16} + 2119.010683739433 R{3,17}
   + 2073.961787028964 R{3,18} + 2238.723408399239 R{3,19}
   + 1205.956680774682 R{3,20} + 1456.949149395219 R{3,21}
   + 622.3210960664773 R{3,22} - 242.5208875955131 R{4,0}
   + 1055.572474837385 R{4,1} + 1576.196574514046 R{4,2}
   + 1931.337246971942 R{4,3} + 1301.603430475393 R{4,4}
   + 1267.488355312007 R{4,5} + 1005.628303056417 R{4,6}
   + 551.5400767623764 R{4,7} + 2276.419519254621 R{4,8}
   + 1977.36573999203 R{4,9} + 1015.695748096928 R{4,10}
   + 1757.258706999987 R{4,11} + 1132.248338857745 R{4,12}
   + 2055.95187286467 R{4,13} + 1272.325466129947 R{4,14}
   + 1473.397479751629 R{4,15} + 2199.95650665791 R{4,16}
   + 797.2691593631714 R{4,17} + 748.7487865679612 R{4,18}
   + 1094.135564208969 R{4,19} + 1434.177445641077 R{4,20}
   + 1490.686722545945 R{4,21} + 348.446049631178 R{4,22}
   + 882.1258219907884 R{4,23} + 1289.527158933495 R{4,24}
   + 1359.363227122263 R{4,25} + 2236.326649291197 R{4,26}
   + 694.2473937936122 R{4,27} + 2276.419519254621 R{4,28}
   - 231.9775664337766 R{5,0} + 40.49903117334031 R{5,1}
   + 364.0546919427258 R{5,2} + 370.0188714812016 R{5,3}
   + 74.24428827941068 R{5,4} + 279.9966662489205 R{5,5}
   + 244.036414183525 R{5,6} + 700.4868457449968 R{5,7}
   + 911.832748523268 R{5,8} + 486.6411256019271 R{5,9}
   + 1193.886919135284 R{5,10} + 1495.355075822931 R{5,11}
   + 1199.617346371838 R{5,12} + 1017.36011354212 R{5,13}
   - 231.1436095783099 R{6,0} + 352.5135528432641 R{6,1}
   + 1376.623169502638 R{6,2} + 1941.768530245978 R{6,3}
   + 799.8444716598949 R{6,4} + 1147.295029292683 R{6,5}
   + 814.7126642638028 R{6,6} + 2128.729448796867 R{6,7}
   + 1268.198212732704 R{6,8} + 1180.441901647362 R{6,9}
   + 787.9051843639558 R{6,10} + 1421.539927502563 R{6,11}
   + 1098.44526247363 R{6,12} + 1603.355469213784 R{6,13}
   + 1980.138593324489 R{6,14} + 1654.16097712059 R{6,15}
   + 1997.194063138712 R{6,16} + 1303.051059165035 R{6,17}
   + 814.7589167875574 R{6,18} + 791.5276594774365 R{6,19}
   + 2325.349786139097 R{6,20} + 1818.811499348824 R{6,21}
   + 1279.480258299936 R{6,22} + 774.5388878769296 R{6,23}
   + 901.13487494325 R{6,24} + 1807.488099483968 R{6,25}
   + 1546.258441179859 R{6,26} + 2315.956354378137 R{6,27}
   + 774.5388878769296 R{6,28} + 1772.303551381363 R{6,29}
Subject To
 R00: R{0,0} <= 1
 R01: R{0,1} <= 1
 R02: R{0,2} <= 1
 R03: R{0,3} <= 1
 R04: R{0,4} <= 1
 R05: R{0,5} <= 1
 R06: R{0,6} <= 1
 R07: R{0,7} <= 1
 R08: R{0,8} <= 1
 R09: R{0,9} <= 1
 R010: R{0,10} <= 1
 R011: R{0,11} <= 1
 R012: R{0,12} <= 1
 R013: R{0,13} <= 1
 R014: R{0,14} <= 1
 R015: R{0,15} <= 1
 R016: R{0,16} <= 1
 R017: R{0,17} <= 1
 R018: R{1,0} <= 1
 R019: R{1,1} <= 1
 R020: R{1,2} <= 1
 R021: R{1,3} <= 1
 R022: R{1,4} <= 1
 R023: R{1,5} <= 1
 R024: R{1,6} <= 1
 R025: R{1,7} <= 1
 R026: R{1,8} <= 1
 R027: R{1,9} <= 1
 R028: R{1,10} <= 1
 R029: R{1,11} <= 1
 R030: R{1,12} <= 1
 R031: R{1,13} <= 1
 R032: R{1,14} <= 1
 R033: R{1,15} <= 1
 R034: R{2,0} <= 1
 R035: R{2,1} <= 1
 R036: R{2,2} <= 1
 R037: R{2,3} <= 1
 R038: R{2,4} <= 1
 R039: R{2,5} <= 1
 R040: R{2,6} <= 1
 R041: R{2,7} <= 1
 R042: R{2,8} <= 1
 R043: R{2,9} <= 1
 R044: R{2,10} <= 1
 R045: R{2,11} <= 1
 R046: R{2,12} <= 1
 R047: R{2,13} <= 1
 R048: R{2,14} <= 1
 R049: R{2,15} <= 1
 R050: R{3,0} <= 1
 R051: R{3,1} <= 1
 R052: R{3,2} <= 1
 R053: R{3,3} <= 1
 R054: R{3,4} <= 1
 R055: R{3,5} <= 1
 R056: R{3,6} <= 1
 R057: R{3,7} <= 1
 R058: R{3,8} <= 1
 R059: R{3,9} <= 1
 R060: R{3,10} <= 1
 R061: R{3,11} <= 1
 R062: R{3,12} <= 1
 R063: R{3,13} <= 1
 R064: R{3,14} <= 1
 R065: R{3,15} <= 1
 R066: R{3,16} <= 1
 R067: R{3,17} <= 1
 R068: R{3,18} <= 1
 R069: R{3,19} <= 1
 R070: R{3,20} <= 1
 R071: R{3,21} <= 1
 R072: R{3,22} <= 1
 R073: R{4,0} <= 1
 R074: R{4,1} <= 1
 R075: R{4,2} <= 1
 R076: R{4,3} <= 1
 R077: R{4,4} <= 1
 R078: R{4,5} <= 1
 R079: R{4,6} <= 1
 R080: R{4,7} <= 1
 R081: R{4,8} <= 1
 R082: R{4,9} <= 1
 R083: R{4,10} <= 1
 R084: R{4,11} <= 1
 R085: R{4,12} <= 1
 R086: R{4,13} <= 1
 R087: R{4,14} <= 1
 R088: R{4,15} <= 1
 R089: R{4,16} <= 1
 R090: R{4,17} <= 1
 R091: R{4,18} <= 1
 R092: R{4,19} <= 1
 R093: R{4,20} <= 1
 R094: R{4,21} <= 1
 R095: R{4,22} <= 1
 R096: R{4,23} <= 1
 R097: R{4,24} <= 1
 R098: R{4,25} <= 1
 R099: R{4,26} <= 1
 R0100: R{4,27} <= 1
 R0101: R{4,28} <= 1
 R0102: R{5,0} <= 1
 R0103: R{5,1} <= 1
 R0104: R{5,2} <= 1
 R0105: R{5,3} <= 1
 R0106: R{5,4} <= 1
 R0107: R{5,5} <= 1
 R0108: R{5,6} <= 1
 R0109: R{5,7} <= 1
 R0110: R{5,8} <= 1
 R0111: R{5,9} <= 1
 R0112: R{5,10} <= 1
 R0113: R{5,11} <= 1
 R0114: R{5,12} <= 1
 R0115: R{5,13} <= 1
 R0116: R{6,0} <= 1
 R0117: R{6,1} <= 1
 R0118: R{6,2} <= 1
 R0119: R{6,3} <= 1
 R0120: R{6,4} <= 1
 R0121: R{6,5} <= 1
 R0122: R{6,6} <= 1
 R0123: R{6,7} <= 1
 R0124: R{6,8} <= 1
 R0125: R{6,9} <= 1
 R0126: R{6,10} <= 1
 R0127: R{6,11} <= 1
 R0128: R{6,12} <= 1
 R0129: R{6,13} <= 1
 R0130: R{6,14} <= 1
 R0131: R{6,15} <= 1
 R0132: R{6,16} <= 1
 R0133: R{6,17} <= 1
 R0134: R{6,18} <= 1
 R0135: R{6,19} <= 1
 R0136: R{6,20} <= 1
 R0137: R{6,21} <= 1
 R0138: R{6,22} <= 1
 R0139: R{6,23} <= 1
 R0140: R{6,24} <= 1
 R0141: R{6,25} <= 1
 R0142: R{6,26} <= 1
 R0143: R{6,27} <= 1
 R0144: R{6,28} <= 1
 R0145: R{6,29} <= 1
 R1_0: R{0,0} + R{0,1} + R{0,2} + R{0,3} + R{0,4} + R{0,5} + R{0,6}
   + R{0,7} + R{0,8} + R{0,9} + R{0,10} + R{0,11} + R{0,12} + R{0,13}
   + R{0,14} + R{0,15} + R{0,16} + R{0,17} <= 1
 R1_1: R{1,0} + R{1,1} + R{1,2} + R{1,3} + R{1,4} + R{1,5} + R{1,6}
   + R{1,7} + R{1,8} + R{1,9} + R{1,10} + R{1,11} + R{1,12} + R{1,13}
   + R{1,14} + R{1,15} <= 1
 R1_2: R{2,0} + R{2,1} + R{2,2} + R{2,3} + R{2,4} + R{2,5} + R{2,6}
   + R{2,7} + R{2,8} + R{2,9} + R{2,10} + R{2,11} + R{2,12} + R{2,13}
   + R{2,14} + R{2,15} <= 1
 R1_3: R{3,0} + R{3,1} + R{3,2} + R{3,3} + R{3,4} + R{3,5} + R{3,6}
   + R{3,7} + R{3,8} + R{3,9} + R{3,10} + R{3,11} + R{3,12} + R{3,13}
   + R{3,14} + R{3,15} + R{3,16} + R{3,17} + R{3,18} + R{3,19} + R{3,20}
   + R{3,21} + R{3,22} <= 1
 R1_4: R{4,0} + R{4,1} + R{4,2} + R{4,3} + R{4,4} + R{4,5} + R{4,6}
   + R{4,7} + R{4,8} + R{4,9} + R{4,10} + R{4,11} + R{4,12} + R{4,13}
   + R{4,14} + R{4,15} + R{4,16} + R{4,17} + R{4,18} + R{4,19} + R{4,20}
   + R{4,21} + R{4,22} + R{4,23} + R{4,24} + R{4,25} + R{4,26} + R{4,27}
   + R{4,28} <= 1
 R1_5: R{5,0} + R{5,1} + R{5,2} + R{5,3} + R{5,4} + R{5,5} + R{5,6}
   + R{5,7} + R{5,8} + R{5,9} + R{5,10} + R{5,11} + R{5,12} + R{5,13} <= 1
 R1_6: R{6,0} + R{6,1} + R{6,2} + R{6,3} + R{6,4} + R{6,5} + R{6,6}
   + R{6,7} + R{6,8} + R{6,9} + R{6,10} + R{6,11} + R{6,12} + R{6,13}
   + R{6,14} + R{6,15} + R{6,16} + R{6,17} + R{6,18} + R{6,19} + R{6,20}
   + R{6,21} + R{6,22} + R{6,23} + R{6,24} + R{6,25} + R{6,26} + R{6,27}
   + R{6,28} + R{6,29} <= 1
 R2_0: <= 7
 R2_1: 10 R{3,1} + 10 R{3,2} + 10 R{3,3} + 10 R{3,4} + 10 R{3,6}
   + 10 R{3,7} + 10 R{3,10} + 10 R{3,11} + 10 R{3,12} + 10 R{3,16}
   + 10 R{3,18} + 10 R{3,19} + 10 R{3,21} + 10 R{3,22} + 10 R{5,7}
   + 10 R{5,8} + 10 R{5,9} + 10 R{5,13} + 10 R{6,7} + 10 R{6,9}
   + 10 R{6,13} + 10 R{6,17} + 10 R{6,20} + 10 R{6,27} <= 10
 R2_2: <= 0
 R2_3: 4 R{1,10} + 4 R{3,20} + 4 R{5,1} + 4 R{5,2} + 4 R{5,3} + 4 R{5,4}
   + 4 R{5,6} + 4 R{5,7} + 4 R{5,9} + 4 R{5,11} + 4 R{6,22} <= 4
 R2_4: <= 0
 R2_5: 5 R{5,1} + 5 R{5,2} + 5 R{5,3} <= 5
 R2_6: 10 R{1,5} + 10 R{1,7} + 10 R{1,9} + 10 R{1,13} + 10 R{1,14}
   + 10 R{1,15} + 10 R{5,5} + 10 R{6,1} + 10 R{6,2} + 10 R{6,3} + 10 R{6,4}
   + 10 R{6,5} + 10 R{6,7} + 10 R{6,9} + 10 R{6,10} + 10 R{6,11}
   + 10 R{6,14} + 10 R{6,16} + 10 R{6,17} + 10 R{6,19} + 10 R{6,20}
   + 10 R{6,21} + 10 R{6,25} + 10 R{6,27} + 10 R{6,29} <= 10
 R2_7: <= 0
 R2_8: <= 0
 R2_9: 12 R{3,17} + 12 R{4,1} + 12 R{4,2} + 12 R{4,3} + 12 R{4,5}
   + 12 R{4,6} + 12 R{4,7} + 12 R{4,8} + 12 R{4,9} + 12 R{4,10}
   + 12 R{4,11} + 12 R{4,12} + 12 R{4,13} + 12 R{4,15} + 12 R{4,16}
   + 12 R{4,17} + 12 R{4,18} + 12 R{4,19} + 12 R{4,20} + 12 R{4,21}
   + 12 R{4,22} + 12 R{4,23} + 12 R{4,24} + 12 R{4,26} + 12 R{4,27}
   + 12 R{4,28} <= 12
 R2_10: 8 R{0,7} + 8 R{0,8} + 8 R{0,13} + 8 R{0,14} + 8 R{4,25} + 8 R{6,1}
   + 8 R{6,2} + 8 R{6,3} + 8 R{6,5} + 8 R{6,6} + 8 R{6,7} + 8 R{6,8}
   + 8 R{6,9} + 8 R{6,11} + 8 R{6,13} + 8 R{6,15} + 8 R{6,18} + 8 R{6,20}
   + 8 R{6,22} + 8 R{6,23} + 8 R{6,24} + 8 R{6,27} + 8 R{6,28} + 8 R{6,29}
   <= 8
 R2_11: 15 R{0,8} + 15 R{0,11} + 15 R{0,14} + 15 R{3,17} + 15 R{4,24}
   + 15 R{6,12} <= 15
 R2_12: <= 0
 R2_13: <= 0
 R2_14: <= 0
 R2_15: 11 R{0,0} + 11 R{0,1} + 11 R{0,2} + 11 R{0,9} + 11 R{0,13}
   + 11 R{0,16} + 11 R{4,1} + 11 R{4,2} + 11 R{4,3} + 11 R{4,5}
   + 11 R{4,19} + 11 R{4,21} + 11 R{4,23} <= 11
 R2_16: <= 5
 R2_17: 11 R{0,10} + 11 R{0,17} + 11 R{4,14} + 11 R{6,23} + 11 R{6,28}
   <= 11
 R2_18: 5 R{3,13} + 5 R{3,16} + 5 R{3,17} + 5 R{3,22} <= 5
 R2_19: 11 R{1,3} + 11 R{1,10} + 11 R{3,8} + 11 R{3,20} + 11 R{4,1}
   + 11 R{4,2} + 11 R{4,3} + 11 R{4,4} + 11 R{4,5} + 11 R{4,9} + 11 R{4,10}
   + 11 R{4,12} + 11 R{4,19} + 11 R{4,21} + 11 R{4,23} + 11 R{4,24}
   + 11 R{5,10} + 11 R{5,11} + 11 R{5,12} + 11 R{6,6} + 11 R{6,18}
   + 11 R{6,22} <= 11
 R2_20: 13 R{0,5} + 13 R{2,5} + 13 R{2,11} + 13 R{3,1} + 13 R{3,2}
   + 13 R{3,3} + 13 R{3,4} + 13 R{3,5} + 13 R{3,8} + 13 R{3,9} + 13 R{3,10}
   + 13 R{3,12} + 13 R{3,14} + 13 R{3,18} + 13 R{3,19} + 13 R{3,20}
   + 13 R{3,21} + 13 R{4,13} + 13 R{4,20} + 13 R{5,2} + 13 R{6,12}
   + 13 R{6,15} <= 13
 R2_21: <= 0
 R2_22: 10 R{0,10} + 10 R{0,17} + 10 R{4,7} + 10 R{4,10} + 10 R{4,24}
   + 10 R{6,8} + 10 R{6,12} + 10 R{6,24} <= 10
 R2_23: 14 R{0,1} + 14 R{0,2} + 14 R{0,6} + 14 R{0,7} + 14 R{0,10}
   + 14 R{0,12} + 14 R{0,17} + 14 R{2,0} + 14 R{2,1} + 14 R{2,12}
   + 14 R{4,6} + 14 R{4,8} + 14 R{4,13} + 14 R{4,17} + 14 R{4,20}
   + 14 R{4,28} + 14 R{6,2} + 14 R{6,3} + 14 R{6,5} + 14 R{6,7} + 14 R{6,8}
   + 14 R{6,14} + 14 R{6,15} + 14 R{6,16} + 14 R{6,20} + 14 R{6,21}
   + 14 R{6,24} + 14 R{6,25} + 14 R{6,26} + 14 R{6,27} <= 14
 R2_24: 10 R{1,4} + 10 R{3,1} + 10 R{3,2} + 10 R{3,3} + 10 R{3,6}
   + 10 R{3,7} + 10 R{3,8} + 10 R{3,9} + 10 R{3,10} + 10 R{3,14}
   + 10 R{3,18} + 10 R{3,19} + 10 R{3,20} + 10 R{3,21} + 10 R{4,25}
   + 10 R{5,6} <= 10
 R2_25: 13 R{3,10} + 13 R{3,14} + 13 R{4,1} + 13 R{4,2} + 13 R{4,3}
   + 13 R{4,4} + 13 R{4,5} + 13 R{4,6} + 13 R{4,8} + 13 R{4,9} + 13 R{4,11}
   + 13 R{4,12} + 13 R{4,13} + 13 R{4,15} + 13 R{4,16} + 13 R{4,17}
   + 13 R{4,18} + 13 R{4,19} + 13 R{4,20} + 13 R{4,21} + 13 R{4,22}
   + 13 R{4,23} + 13 R{4,26} + 13 R{4,27} + 13 R{4,28} <= 13
 R2_26: 6 R{1,1} + 6 R{1,2} + 6 R{1,3} + 6 R{1,4} + 6 R{1,6} + 6 R{1,10}
   + 6 R{1,11} + 6 R{1,12} + 6 R{2,9} + 6 R{2,10} + 6 R{2,13} + 6 R{3,13}
   + 6 R{3,15} + 6 R{3,17} + 6 R{4,16} + 6 R{4,26} <= 6
 R2_27: 5 R{1,5} + 5 R{1,7} + 5 R{1,8} + 5 R{1,9} + 5 R{1,13} + 5 R{1,14}
   + 5 R{1,15} + 5 R{3,4} + 5 R{3,5} + 5 R{3,6} + 5 R{3,7} + 5 R{5,3}
   + 5 R{5,7} + 5 R{5,9} + 5 R{6,10} + 5 R{6,19} + 5 R{6,23} + 5 R{6,28}
   <= 5
 R2_28: <= 0
 R2_29: <= 0
 R2_30: <= 0
 R2_31: 6 R{6,1} + 6 R{6,2} + 6 R{6,4} + 6 R{6,5} + 6 R{6,6} + 6 R{6,8}
   + 6 R{6,9} + 6 R{6,10} + 6 R{6,11} + 6 R{6,15} + 6 R{6,17} + 6 R{6,18}
   + 6 R{6,19} + 6 R{6,22} + 6 R{6,23} + 6 R{6,24} + 6 R{6,28} + 6 R{6,29}
   <= 6
 R2_32: 7 R{0,4} + 7 R{0,5} + 7 R{1,6} + 7 R{1,11} + 7 R{3,17} + 7 R{4,16}
   + 7 R{4,26} + 7 R{5,10} + 7 R{5,12} <= 7
 R2_33: 12 R{3,13} + 12 R{3,16} + 12 R{3,22} + 12 R{5,7} + 12 R{5,8}
   + 12 R{5,10} + 12 R{5,11} + 12 R{5,12} + 12 R{5,13} <= 12
 R2_34: 5 R{0,11} + 5 R{3,9} + 5 R{3,14} + 5 R{4,11} + 5 R{4,14}
   + 5 R{4,15} + 5 R{4,16} + 5 R{4,18} + 5 R{4,25} + 5 R{6,9} + 5 R{6,17}
   <= 5
 R2_35: <= 13
 R2_36: <= 0
 R2_37: 5 R{1,5} + 5 R{1,6} + 5 R{1,8} + 5 R{1,9} + 5 R{1,11} + 5 R{2,10}
   + 5 R{3,17} + 5 R{5,1} + 5 R{5,3} + 5 R{5,4} + 5 R{5,5} + 5 R{5,6} <= 5
 R2_38: <= 0
 R2_39: <= 0
 R2_40: <= 15
 R2_41: 5 R{3,2} + 5 R{3,3} + 5 R{3,5} + 5 R{3,7} + 5 R{3,8} + 5 R{3,9}
   + 5 R{3,10} + 5 R{3,12} + 5 R{3,14} + 5 R{3,15} + 5 R{3,18} + 5 R{3,19}
   + 5 R{3,21} + 5 R{4,14} + 5 R{4,25} + 5 R{6,4} + 5 R{6,11} + 5 R{6,16}
   + 5 R{6,21} + 5 R{6,29} <= 5
 R2_42: 4 R{2,3} + 4 R{2,4} + 4 R{2,5} + 4 R{2,9} + 4 R{2,11} + 4 R{2,14}
   <= 4
 R2_43: <= 0
 R2_44: <= 0
 R2_45: <= 0
 R2_46: 9 R{0,9} + 9 R{0,10} + 9 R{0,15} + 9 R{0,17} + 9 R{4,4} + 9 R{4,15}
   + 9 R{4,16} + 9 R{4,26} + 9 R{6,8} <= 9
 R2_47: 7 R{1,1} + 7 R{1,2} <= 7
 R2_48: 4 R{4,1} + 4 R{4,2} + 4 R{4,3} + 4 R{4,4} + 4 R{4,5} + 4 R{4,6}
   + 4 R{4,7} + 4 R{4,8} + 4 R{4,11} + 4 R{4,12} + 4 R{4,13} + 4 R{4,14}
   + 4 R{4,16} + 4 R{4,19} + 4 R{4,21} + 4 R{4,25} + 4 R{4,26} + 4 R{4,28}
   + 4 R{6,12} <= 4
 R2_49: <= 0
 R2_50: <= 0
 R2_51: 11 R{0,11} + 11 R{1,6} + 11 R{1,11} + 11 R{1,12} + 11 R{3,17}
   <= 11
 R2_52: 10 R{4,14} + 10 R{4,25} <= 10
 R2_53: 13 R{4,1} + 13 R{4,2} + 13 R{4,4} + 13 R{4,6} + 13 R{4,7}
   + 13 R{4,17} + 13 R{4,19} + 13 R{4,21} + 13 R{4,22} + 13 R{4,23}
   + 13 R{4,27} + 13 R{5,13} <= 13
 R2_54: 9 R{3,1} + 9 R{3,2} + 9 R{3,3} + 9 R{3,4} + 9 R{3,5} + 9 R{3,8}
   + 9 R{3,9} + 9 R{3,10} + 9 R{3,12} + 9 R{3,13} + 9 R{3,15} + 9 R{3,16}
   + 9 R{3,18} + 9 R{3,19} + 9 R{3,20} + 9 R{3,21} + 9 R{3,22} <= 9
 R2_55: 8 R{1,6} + 8 R{1,11} + 8 R{1,12} + 8 R{3,17} <= 8
 R2_56: 6 R{0,11} + 6 R{0,13} + 6 R{1,6} + 6 R{1,11} + 6 R{2,0} + 6 R{2,1}
   + 6 R{2,6} + 6 R{2,8} + 6 R{2,15} + 6 R{3,17} + 6 R{3,18} + 6 R{3,19}
   + 6 R{4,3} + 6 R{4,5} + 6 R{4,8} + 6 R{4,9} + 6 R{4,10} + 6 R{4,11}
   + 6 R{4,13} + 6 R{4,21} + 6 R{4,24} + 6 R{4,28} + 6 R{5,11} + 6 R{6,2}
   + 6 R{6,3} + 6 R{6,7} + 6 R{6,11} + 6 R{6,13} + 6 R{6,14} + 6 R{6,15}
   + 6 R{6,20} + 6 R{6,22} + 6 R{6,25} + 6 R{6,26} + 6 R{6,27} + 6 R{6,29}
   <= 6
 R2_57: <= 0
 R2_58: 15 R{0,10} + 15 R{0,17} + 15 R{6,12} <= 15
 R2_59: 10 R{0,11} + 10 R{1,6} + 10 R{1,12} + 10 R{2,7} + 10 R{3,17}
   + 10 R{3,19} + 10 R{4,8} + 10 R{4,9} + 10 R{4,12} + 10 R{4,13}
   + 10 R{4,15} + 10 R{4,16} + 10 R{4,20} + 10 R{4,26} + 10 R{4,28}
   + 10 R{6,5} + 10 R{6,6} + 10 R{6,8} + 10 R{6,18} + 10 R{6,22}
   + 10 R{6,24} <= 10
 R2_60: <= 0
 R2_61: 9 R{0,9} + 9 R{0,15} + 9 R{0,16} + 9 R{2,7} + 9 R{2,8} + 9 R{4,14}
   + 9 R{4,15} + 9 R{4,16} + 9 R{4,18} + 9 R{4,25} + 9 R{4,26} + 9 R{6,14}
   + 9 R{6,16} + 9 R{6,20} + 9 R{6,21} + 9 R{6,25} + 9 R{6,26} + 9 R{6,27}
   <= 9
 R2_62: <= 0
 R2_63: <= 0
 R2_64: <= 0
 R2_65: 5 R{0,10} + 5 R{2,0} + 5 R{2,1} + 5 R{2,7} + 5 R{2,8} + 5 R{2,15}
   + 5 R{3,21} + 5 R{6,1} + 5 R{6,2} + 5 R{6,3} + 5 R{6,4} + 5 R{6,7}
   + 5 R{6,9} + 5 R{6,10} + 5 R{6,11} + 5 R{6,13} + 5 R{6,15} + 5 R{6,17}
   + 5 R{6,19} + 5 R{6,23} + 5 R{6,28} + 5 R{6,29} <= 5
 R2_66: 7 R{1,5} + 7 R{1,7} + 7 R{1,8} + 7 R{1,9} + 7 R{1,13} + 7 R{1,14}
   + 7 R{1,15} + 7 R{3,11} + 7 R{3,12} + 7 R{3,13} + 7 R{3,15} + 7 R{3,16}
   + 7 R{3,22} <= 7
 R2_67: 3 R{0,1} + 3 R{0,2} + 3 R{0,6} + 3 R{0,7} + 3 R{0,8} + 3 R{0,9}
   + 3 R{0,11} + 3 R{0,12} + 3 R{0,13} + 3 R{0,14} + 3 R{0,15} + 3 R{0,16}
   + 3 R{2,0} + 3 R{2,1} + 3 R{2,6} + 3 R{2,7} + 3 R{2,12} + 3 R{4,27}
   + 3 R{6,17} + 3 R{6,29} <= 3
 R2_68: 6 R{2,10} + 6 R{2,13} + 6 R{4,1} + 6 R{4,4} + 6 R{4,16} + 6 R{4,19}
   + 6 R{4,21} + 6 R{4,23} + 6 R{4,26} <= 6
 R2_69: 7 R{4,1} + 7 R{4,2} + 7 R{4,3} + 7 R{4,4} + 7 R{4,5} + 7 R{4,6}
   + 7 R{4,7} + 7 R{4,8} + 7 R{4,9} + 7 R{4,10} + 7 R{4,11} + 7 R{4,12}
   + 7 R{4,13} + 7 R{4,15} + 7 R{4,16} + 7 R{4,17} + 7 R{4,18} + 7 R{4,19}
   + 7 R{4,20} + 7 R{4,21} + 7 R{4,22} + 7 R{4,23} + 7 R{4,24} + 7 R{4,26}
   + 7 R{4,27} + 7 R{4,28} + 7 R{6,12} <= 7
 R2_70: 11 R{6,1} + 11 R{6,2} + 11 R{6,3} + 11 R{6,5} + 11 R{6,6}
   + 11 R{6,7} + 11 R{6,10} + 11 R{6,13} + 11 R{6,14} + 11 R{6,15}
   + 11 R{6,16} + 11 R{6,18} + 11 R{6,20} + 11 R{6,21} + 11 R{6,22}
   + 11 R{6,25} + 11 R{6,26} + 11 R{6,27} <= 11
 R2_71: 7 R{0,11} + 7 R{1,9} + 7 R{1,13} + 7 R{1,14} + 7 R{1,15} + 7 R{3,1}
   + 7 R{3,2} + 7 R{3,3} + 7 R{3,7} + 7 R{3,8} + 7 R{3,10} + 7 R{3,11}
   + 7 R{3,12} + 7 R{3,15} + 7 R{3,18} + 7 R{3,20} + 7 R{4,14} + 7 R{4,25}
   + 7 R{6,2} + 7 R{6,3} + 7 R{6,5} + 7 R{6,6} + 7 R{6,9} + 7 R{6,11}
   + 7 R{6,13} + 7 R{6,14} + 7 R{6,15} + 7 R{6,16} + 7 R{6,18} + 7 R{6,20}
   + 7 R{6,22} + 7 R{6,27} + 7 R{6,29} <= 7
 R2_72: <= 0
 R2_73: 11 R{0,11} <= 11
 R2_74: 5 R{5,1} + 5 R{5,2} + 5 R{5,4} + 5 R{5,5} <= 5
 R2_75: 8 R{6,1} + 8 R{6,2} + 8 R{6,3} + 8 R{6,4} + 8 R{6,5} + 8 R{6,6}
   + 8 R{6,7} + 8 R{6,8} + 8 R{6,9} + 8 R{6,10} + 8 R{6,11} + 8 R{6,13}
   + 8 R{6,14} + 8 R{6,15} + 8 R{6,16} + 8 R{6,17} + 8 R{6,18} + 8 R{6,19}
   + 8 R{6,20} + 8 R{6,21} + 8 R{6,22} + 8 R{6,23} + 8 R{6,24} + 8 R{6,25}
   + 8 R{6,26} + 8 R{6,27} + 8 R{6,28} + 8 R{6,29} <= 8
 R2_76: 12 R{0,4} + 12 R{2,11} + 12 R{3,3} + 12 R{3,6} + 12 R{3,10}
   + 12 R{3,12} + 12 R{3,15} + 12 R{3,17} + 12 R{3,18} + 12 R{3,19}
   + 12 R{4,26} <= 12
 R2_77: 7 R{1,2} + 7 R{1,3} + 7 R{1,4} + 7 R{2,4} + 7 R{2,5} + 7 R{2,11}
   + 7 R{2,14} + 7 R{4,2} + 7 R{4,3} + 7 R{4,8} + 7 R{4,9} + 7 R{4,11}
   + 7 R{4,28} + 7 R{5,8} + 7 R{5,10} + 7 R{5,11} + 7 R{5,12} + 7 R{5,13}
   + 7 R{6,3} + 7 R{6,7} + 7 R{6,13} + 7 R{6,14} + 7 R{6,16} + 7 R{6,20}
   + 7 R{6,21} + 7 R{6,25} + 7 R{6,26} + 7 R{6,27} <= 7
Bounds
End
